data/lp_files/q3/68_6.lp
\ Model foo
\ LP format - for model browsing. Use MPS format to capture full model detail.
Minimize
  z
Subject To
 allocateEach[1]: x[1,1] + x[2,1] + x[3,1] + x[4,1] = 1
 allocateEach[2]: x[1,2] + x[2,2] + x[3,2] + x[4,2] = 1
 allocateEach[3]: x[1,3] + x[2,3] + x[3,3] + x[4,3] = 1
 allocateEach[4]: x[1,4] + x[2,4] + x[3,4] + x[4,4] = 1
 allocateEach[5]: x[1,5] + x[2,5] + x[3,5] + x[4,5] = 1
 allocateEach[6]: x[1,6] + x[2,6] + x[3,6] + x[4,6] = 1
 allocateEach[7]: x[1,7] + x[2,7] + x[3,7] + x[4,7] = 1
 allocateEach[8]: x[1,8] + x[2,8] + x[3,8] + x[4,8] = 1
 allocateAllCash: cashProportion[1] + cashProportion[2] + cashProportion[3]
   + cashProportion[4] = 1
 findWorstP[1,2]: z + 0.1016621765872007 cashProportion[1]
   - 0.1016621765872007 cashProportion[2] + 0.1183347735475017 x[1,1]
   + 0.0825751029329538 x[1,2] + 0.2267066537894576 x[1,3]
   + 0.1828902556803741 x[1,4] + 0.0227469120113862 x[1,5]
   + 0.0355055151730799 x[1,6] + 0.1716820007116353 x[1,7]
   + 0.0578966095664108 x[1,8] - 0.1183347735475017 x[2,1]
   - 0.0825751029329538 x[2,2] - 0.2267066537894576 x[2,3]
   - 0.1828902556803741 x[2,4] - 0.0227469120113862 x[2,5]
   - 0.0355055151730799 x[2,6] - 0.1716820007116353 x[2,7]
   - 0.0578966095664108 x[2,8] >= 0
 findWorstP[1,3]: z + 0.1016621765872007 cashProportion[1]
   - 0.1016621765872007 cashProportion[3] + 0.1183347735475017 x[1,1]
   + 0.0825751029329538 x[1,2] + 0.2267066537894576 x[1,3]
   + 0.1828902556803741 x[1,4] + 0.0227469120113862 x[1,5]
   + 0.0355055151730799 x[1,6] + 0.1716820007116353 x[1,7]
   + 0.0578966095664108 x[1,8] - 0.1183347735475017 x[3,1]
   - 0.0825751029329538 x[3,2] - 0.2267066537894576 x[3,3]
   - 0.1828902556803741 x[3,4] - 0.0227469120113862 x[3,5]
   - 0.0355055151730799 x[3,6] - 0.1716820007116353 x[3,7]
   - 0.0578966095664108 x[3,8] >= 0
 findWorstP[1,4]: z + 0.1016621765872007 cashProportion[1]
   - 0.1016621765872007 cashProportion[4] + 0.1183347735475017 x[1,1]
   + 0.0825751029329538 x[1,2] + 0.2267066537894576 x[1,3]
   + 0.1828902556803741 x[1,4] + 0.0227469120113862 x[1,5]
   + 0.0355055151730799 x[1,6] + 0.1716820007116353 x[1,7]
   + 0.0578966095664108 x[1,8] - 0.1183347735475017 x[4,1]
   - 0.0825751029329538 x[4,2] - 0.2267066537894576 x[4,3]
   - 0.1828902556803741 x[4,4] - 0.0227469120113862 x[4,5]
   - 0.0355055151730799 x[4,6] - 0.1716820007116353 x[4,7]
   - 0.0578966095664108 x[4,8] >= 0
 findWorstP[2,1]: z - 0.0863129275187191 cashProportion[1]
   + 0.0863129275187191 cashProportion[2] - 0.2100640873486826 x[1,1]
   - 0.1811276783980321 x[1,2] - 0.0741643829704594 x[1,3]
   - 0.0948579073430723 x[1,4] - 0.0521114299894267 x[1,5]
   - 0.0549813348294241 x[1,6] - 0.0984398938350992 x[1,7]
   - 0.1479403577670846 x[1,8] + 0.2100640873486826 x[2,1]
   + 0.1811276783980321 x[2,2] + 0.0741643829704594 x[2,3]
   + 0.0948579073430723 x[2,4] + 0.0521114299894267 x[2,5]
   + 0.0549813348294241 x[2,6] + 0.0984398938350992 x[2,7]
   + 0.1479403577670846 x[2,8] >= 0
 findWorstP[2,3]: z + 0.0863129275187191 cashProportion[2]
   - 0.0863129275187191 cashProportion[3] + 0.2100640873486826 x[2,1]
   + 0.1811276783980321 x[2,2] + 0.0741643829704594 x[2,3]
   + 0.0948579073430723 x[2,4] + 0.0521114299894267 x[2,5]
   + 0.0549813348294241 x[2,6] + 0.0984398938350992 x[2,7]
   + 0.1479403577670846 x[2,8] - 0.2100640873486826 x[3,1]
   - 0.1811276783980321 x[3,2] - 0.0741643829704594 x[3,3]
   - 0.0948579073430723 x[3,4] - 0.0521114299894267 x[3,5]
   - 0.0549813348294241 x[3,6] - 0.0984398938350992 x[3,7]
   - 0.1479403577670846 x[3,8] >= 0
 findWorstP[2,4]: z + 0.0863129275187191 cashProportion[2]
   - 0.0863129275187191 cashProportion[4] + 0.2100640873486826 x[2,1]
   + 0.1811276783980321 x[2,2] + 0.0741643829704594 x[2,3]
   + 0.0948579073430723 x[2,4] + 0.0521114299894267 x[2,5]
   + 0.0549813348294241 x[2,6] + 0.0984398938350992 x[2,7]
   + 0.1479403577670846 x[2,8] - 0.2100640873486826 x[4,1]
   - 0.1811276783980321 x[4,2] - 0.0741643829704594 x[4,3]
   - 0.0948579073430723 x[4,4] - 0.0521114299894267 x[4,5]
   - 0.0549813348294241 x[4,6] - 0.0984398938350992 x[4,7]
   - 0.1479403577670846 x[4,8] >= 0
 findWorstP[3,1]: z - 0.0957006483718927 cashProportion[1]
   + 0.0957006483718927 cashProportion[3] - 0.1886977534272795 x[1,1]
   - 0.2231739120032538 x[1,2] - 0.0173935928415915 x[1,3]
   - 0.129339426274613 x[1,4] - 0.0429456659568869 x[1,5]
   - 0.013398090772065 x[1,6] - 0.2302318348206809 x[1,7]
   - 0.0591190755317367 x[1,8] + 0.1886977534272795 x[3,1]
   + 0.2231739120032538 x[3,2] + 0.0173935928415915 x[3,3]
   + 0.129339426274613 x[3,4] + 0.0429456659568869 x[3,5]
   + 0.013398090772065 x[3,6] + 0.2302318348206809 x[3,7]
   + 0.0591190755317367 x[3,8] >= 0
 findWorstP[3,2]: z - 0.0957006483718927 cashProportion[2]
   + 0.0957006483718927 cashProportion[3] - 0.1886977534272795 x[2,1]
   - 0.2231739120032538 x[2,2] - 0.0173935928415915 x[2,3]
   - 0.129339426274613 x[2,4] - 0.0429456659568869 x[2,5]
   - 0.013398090772065 x[2,6] - 0.2302318348206809 x[2,7]
   - 0.0591190755317367 x[2,8] + 0.1886977534272795 x[3,1]
   + 0.2231739120032538 x[3,2] + 0.0173935928415915 x[3,3]
   + 0.129339426274613 x[3,4] + 0.0429456659568869 x[3,5]
   + 0.013398090772065 x[3,6] + 0.2302318348206809 x[3,7]
   + 0.0591190755317367 x[3,8] >= 0
 findWorstP[3,4]: z + 0.0957006483718927 cashProportion[3]
   - 0.0957006483718927 cashProportion[4] + 0.1886977534272795 x[3,1]
   + 0.2231739120032538 x[3,2] + 0.0173935928415915 x[3,3]
   + 0.129339426274613 x[3,4] + 0.0429456659568869 x[3,5]
   + 0.013398090772065 x[3,6] + 0.2302318348206809 x[3,7]
   + 0.0591190755317367 x[3,8] - 0.1886977534272795 x[4,1]
   - 0.2231739120032538 x[4,2] - 0.0173935928415915 x[4,3]
   - 0.129339426274613 x[4,4] - 0.0429456659568869 x[4,5]
   - 0.013398090772065 x[4,6] - 0.2302318348206809 x[4,7]
   - 0.0591190755317367 x[4,8] >= 0
 findWorstP[4,1]: z - 0.1073969660357095 cashProportion[1]
   + 0.1073969660357095 cashProportion[4] - 0.1617129816082696 x[1,1]
   - 0.1976372667472144 x[1,2] - 0.048785071821721 x[1,3]
   - 0.00174520069808028 x[1,4] - 0.0337226473352128 x[1,5]
   - 0.1765874614042153 x[1,6] - 0.0202443280977312 x[1,7]
   - 0.2521680762518459 x[1,8] + 0.1617129816082696 x[4,1]
   + 0.1976372667472144 x[4,2] + 0.048785071821721 x[4,3]
   + 0.00174520069808028 x[4,4] + 0.0337226473352128 x[4,5]
   + 0.1765874614042153 x[4,6] + 0.0202443280977312 x[4,7]
   + 0.2521680762518459 x[4,8] >= 0
 findWorstP[4,2]: z - 0.1073969660357095 cashProportion[2]
   + 0.1073969660357095 cashProportion[4] - 0.1617129816082696 x[2,1]
   - 0.1976372667472144 x[2,2] - 0.048785071821721 x[2,3]
   - 0.00174520069808028 x[2,4] - 0.0337226473352128 x[2,5]
   - 0.1765874614042153 x[2,6] - 0.0202443280977312 x[2,7]
   - 0.2521680762518459 x[2,8] + 0.1617129816082696 x[4,1]
   + 0.1976372667472144 x[4,2] + 0.048785071821721 x[4,3]
   + 0.00174520069808028 x[4,4] + 0.0337226473352128 x[4,5]
   + 0.1765874614042153 x[4,6] + 0.0202443280977312 x[4,7]
   + 0.2521680762518459 x[4,8] >= 0
 findWorstP[4,3]: z - 0.1073969660357095 cashProportion[3]
   + 0.1073969660357095 cashProportion[4] - 0.1617129816082696 x[3,1]
   - 0.1976372667472144 x[3,2] - 0.048785071821721 x[3,3]
   - 0.00174520069808028 x[3,4] - 0.0337226473352128 x[3,5]
   - 0.1765874614042153 x[3,6] - 0.0202443280977312 x[3,7]
   - 0.2521680762518459 x[3,8] + 0.1617129816082696 x[4,1]
   + 0.1976372667472144 x[4,2] + 0.048785071821721 x[4,3]
   + 0.00174520069808028 x[4,4] + 0.0337226473352128 x[4,5]
   + 0.1765874614042153 x[4,6] + 0.0202443280977312 x[4,7]
   + 0.2521680762518459 x[4,8] >= 0
Bounds
 z <= 1
 -infinity <= cashProportion[1] <= 1
 -infinity <= cashProportion[2] <= 1
 -infinity <= cashProportion[3] <= 1
 -infinity <= cashProportion[4] <= 1
Binaries
 x[1,1] x[1,2] x[1,3] x[1,4] x[1,5] x[1,6] x[1,7] x[1,8] x[2,1] x[2,2]
 x[2,3] x[2,4] x[2,5] x[2,6] x[2,7] x[2,8] x[3,1] x[3,2] x[3,3] x[3,4]
 x[3,5] x[3,6] x[3,7] x[3,8] x[4,1] x[4,2] x[4,3] x[4,4] x[4,5] x[4,6]
 x[4,7] x[4,8]
End
