data/mps_files/pEFS/68_6.mps
NAME foo
ROWS
 N  OBJ
 E  allocateEach[1]
 E  allocateEach[2]
 E  allocateEach[3]
 E  allocateEach[4]
 E  allocateEach[5]
 E  allocateEach[6]
 E  allocateEach[7]
 E  allocateEach[8]
 E  allocateAllCash
 G  findWorstP[1,2]
 G  findWorstP[1,3]
 G  findWorstP[1,4]
 G  findWorstP[2,1]
 G  findWorstP[2,3]
 G  findWorstP[2,4]
 G  findWorstP[3,1]
 G  findWorstP[3,2]
 G  findWorstP[3,4]
 G  findWorstP[4,1]
 G  findWorstP[4,2]
 G  findWorstP[4,3]
COLUMNS
    z         OBJ       1
    z         findWorstP[1,2]  1
    z         findWorstP[1,3]  1
    z         findWorstP[1,4]  1
    z         findWorstP[2,1]  1
    z         findWorstP[2,3]  1
    z         findWorstP[2,4]  1
    z         findWorstP[3,1]  1
    z         findWorstP[3,2]  1
    z         findWorstP[3,4]  1
    z         findWorstP[4,1]  1
    z         findWorstP[4,2]  1
    z         findWorstP[4,3]  1
    cashProportion[1]  allocateAllCash  1
    cashProportion[1]  findWorstP[1,2]  1.0166217658720074e-01
    cashProportion[1]  findWorstP[1,3]  1.0166217658720074e-01
    cashProportion[1]  findWorstP[1,4]  1.0166217658720074e-01
    cashProportion[1]  findWorstP[2,1]  -8.6312927518719121e-02
    cashProportion[1]  findWorstP[3,1]  -9.5700648371892738e-02
    cashProportion[1]  findWorstP[4,1]  -1.0739696603570950e-01
    cashProportion[2]  allocateAllCash  1
    cashProportion[2]  findWorstP[1,2]  -1.0166217658720074e-01
    cashProportion[2]  findWorstP[2,1]  8.6312927518719121e-02
    cashProportion[2]  findWorstP[2,3]  8.6312927518719121e-02
    cashProportion[2]  findWorstP[2,4]  8.6312927518719121e-02
    cashProportion[2]  findWorstP[3,2]  -9.5700648371892738e-02
    cashProportion[2]  findWorstP[4,2]  -1.0739696603570950e-01
    cashProportion[3]  allocateAllCash  1
    cashProportion[3]  findWorstP[1,3]  -1.0166217658720074e-01
    cashProportion[3]  findWorstP[2,3]  -8.6312927518719121e-02
    cashProportion[3]  findWorstP[3,1]  9.5700648371892738e-02
    cashProportion[3]  findWorstP[3,2]  9.5700648371892738e-02
    cashProportion[3]  findWorstP[3,4]  9.5700648371892738e-02
    cashProportion[3]  findWorstP[4,3]  -1.0739696603570950e-01
    cashProportion[4]  allocateAllCash  1
    cashProportion[4]  findWorstP[1,4]  -1.0166217658720074e-01
    cashProportion[4]  findWorstP[2,4]  -8.6312927518719121e-02
    cashProportion[4]  findWorstP[3,4]  -9.5700648371892738e-02
    cashProportion[4]  findWorstP[4,1]  1.0739696603570950e-01
    cashProportion[4]  findWorstP[4,2]  1.0739696603570950e-01
    cashProportion[4]  findWorstP[4,3]  1.0739696603570950e-01
    MARKER    'MARKER'                 'INTORG'
    x[1,1]    allocateEach[1]  1
    x[1,1]    findWorstP[1,2]  1.1833477354750166e-01
    x[1,1]    findWorstP[1,3]  1.1833477354750166e-01
    x[1,1]    findWorstP[1,4]  1.1833477354750166e-01
    x[1,1]    findWorstP[2,1]  -2.1006408734868265e-01
    x[1,1]    findWorstP[3,1]  -1.8869775342727949e-01
    x[1,1]    findWorstP[4,1]  -1.6171298160826955e-01
    x[1,2]    allocateEach[2]  1
    x[1,2]    findWorstP[1,2]  8.2575102932953809e-02
    x[1,2]    findWorstP[1,3]  8.2575102932953809e-02
    x[1,2]    findWorstP[1,4]  8.2575102932953809e-02
    x[1,2]    findWorstP[2,1]  -1.8112767839803207e-01
    x[1,2]    findWorstP[3,1]  -2.2317391200325384e-01
    x[1,2]    findWorstP[4,1]  -1.9763726674721438e-01
    x[1,3]    allocateEach[3]  1
    x[1,3]    findWorstP[1,2]  2.2670665378945765e-01
    x[1,3]    findWorstP[1,3]  2.2670665378945765e-01
    x[1,3]    findWorstP[1,4]  2.2670665378945765e-01
    x[1,3]    findWorstP[2,1]  -7.4164382970459408e-02
    x[1,3]    findWorstP[3,1]  -1.7393592841591504e-02
    x[1,3]    findWorstP[4,1]  -4.8785071821721038e-02
    x[1,4]    allocateEach[4]  1
    x[1,4]    findWorstP[1,2]  1.8289025568037412e-01
    x[1,4]    findWorstP[1,3]  1.8289025568037412e-01
    x[1,4]    findWorstP[1,4]  1.8289025568037412e-01
    x[1,4]    findWorstP[2,1]  -9.4857907343072312e-02
    x[1,4]    findWorstP[3,1]  -0.129339426274613
    x[1,4]    findWorstP[4,1]  -1.7452006980802793e-03
    x[1,5]    allocateEach[5]  1
    x[1,5]    findWorstP[1,2]  2.2746912011386164e-02
    x[1,5]    findWorstP[1,3]  2.2746912011386164e-02
    x[1,5]    findWorstP[1,4]  2.2746912011386164e-02
    x[1,5]    findWorstP[2,1]  -5.2111429989426666e-02
    x[1,5]    findWorstP[3,1]  -4.2945665956886862e-02
    x[1,5]    findWorstP[4,1]  -3.3722647335212776e-02
    x[1,6]    allocateEach[6]  1
    x[1,6]    findWorstP[1,2]  3.5505515173079857e-02
    x[1,6]    findWorstP[1,3]  3.5505515173079857e-02
    x[1,6]    findWorstP[1,4]  3.5505515173079857e-02
    x[1,6]    findWorstP[2,1]  -5.4981334829424085e-02
    x[1,6]    findWorstP[3,1]  -1.3398090772064983e-02
    x[1,6]    findWorstP[4,1]  -1.7658746140421533e-01
    x[1,7]    allocateEach[7]  1
    x[1,7]    findWorstP[1,2]  1.7168200071163525e-01
    x[1,7]    findWorstP[1,3]  1.7168200071163525e-01
    x[1,7]    findWorstP[1,4]  1.7168200071163525e-01
    x[1,7]    findWorstP[2,1]  -9.8439893835099157e-02
    x[1,7]    findWorstP[3,1]  -2.3023183482068094e-01
    x[1,7]    findWorstP[4,1]  -2.0244328097731239e-02
    x[1,8]    allocateEach[8]  1
    x[1,8]    findWorstP[1,2]  5.7896609566410823e-02
    x[1,8]    findWorstP[1,3]  5.7896609566410823e-02
    x[1,8]    findWorstP[1,4]  5.7896609566410823e-02
    x[1,8]    findWorstP[2,1]  -1.4794035776708456e-01
    x[1,8]    findWorstP[3,1]  -5.9119075531736731e-02
    x[1,8]    findWorstP[4,1]  -2.5216807625184590e-01
    x[2,1]    allocateEach[1]  1
    x[2,1]    findWorstP[1,2]  -1.1833477354750166e-01
    x[2,1]    findWorstP[2,1]  2.1006408734868265e-01
    x[2,1]    findWorstP[2,3]  2.1006408734868265e-01
    x[2,1]    findWorstP[2,4]  2.1006408734868265e-01
    x[2,1]    findWorstP[3,2]  -1.8869775342727949e-01
    x[2,1]    findWorstP[4,2]  -1.6171298160826955e-01
    x[2,2]    allocateEach[2]  1
    x[2,2]    findWorstP[1,2]  -8.2575102932953809e-02
    x[2,2]    findWorstP[2,1]  1.8112767839803207e-01
    x[2,2]    findWorstP[2,3]  1.8112767839803207e-01
    x[2,2]    findWorstP[2,4]  1.8112767839803207e-01
    x[2,2]    findWorstP[3,2]  -2.2317391200325384e-01
    x[2,2]    findWorstP[4,2]  -1.9763726674721438e-01
    x[2,3]    allocateEach[3]  1
    x[2,3]    findWorstP[1,2]  -2.2670665378945765e-01
    x[2,3]    findWorstP[2,1]  7.4164382970459408e-02
    x[2,3]    findWorstP[2,3]  7.4164382970459408e-02
    x[2,3]    findWorstP[2,4]  7.4164382970459408e-02
    x[2,3]    findWorstP[3,2]  -1.7393592841591504e-02
    x[2,3]    findWorstP[4,2]  -4.8785071821721038e-02
    x[2,4]    allocateEach[4]  1
    x[2,4]    findWorstP[1,2]  -1.8289025568037412e-01
    x[2,4]    findWorstP[2,1]  9.4857907343072312e-02
    x[2,4]    findWorstP[2,3]  9.4857907343072312e-02
    x[2,4]    findWorstP[2,4]  9.4857907343072312e-02
    x[2,4]    findWorstP[3,2]  -0.129339426274613
    x[2,4]    findWorstP[4,2]  -1.7452006980802793e-03
    x[2,5]    allocateEach[5]  1
    x[2,5]    findWorstP[1,2]  -2.2746912011386164e-02
    x[2,5]    findWorstP[2,1]  5.2111429989426666e-02
    x[2,5]    findWorstP[2,3]  5.2111429989426666e-02
    x[2,5]    findWorstP[2,4]  5.2111429989426666e-02
    x[2,5]    findWorstP[3,2]  -4.2945665956886862e-02
    x[2,5]    findWorstP[4,2]  -3.3722647335212776e-02
    x[2,6]    allocateEach[6]  1
    x[2,6]    findWorstP[1,2]  -3.5505515173079857e-02
    x[2,6]    findWorstP[2,1]  5.4981334829424085e-02
    x[2,6]    findWorstP[2,3]  5.4981334829424085e-02
    x[2,6]    findWorstP[2,4]  5.4981334829424085e-02
    x[2,6]    findWorstP[3,2]  -1.3398090772064983e-02
    x[2,6]    findWorstP[4,2]  -1.7658746140421533e-01
    x[2,7]    allocateEach[7]  1
    x[2,7]    findWorstP[1,2]  -1.7168200071163525e-01
    x[2,7]    findWorstP[2,1]  9.8439893835099157e-02
    x[2,7]    findWorstP[2,3]  9.8439893835099157e-02
    x[2,7]    findWorstP[2,4]  9.8439893835099157e-02
    x[2,7]    findWorstP[3,2]  -2.3023183482068094e-01
    x[2,7]    findWorstP[4,2]  -2.0244328097731239e-02
    x[2,8]    allocateEach[8]  1
    x[2,8]    findWorstP[1,2]  -5.7896609566410823e-02
    x[2,8]    findWorstP[2,1]  1.4794035776708456e-01
    x[2,8]    findWorstP[2,3]  1.4794035776708456e-01
    x[2,8]    findWorstP[2,4]  1.4794035776708456e-01
    x[2,8]    findWorstP[3,2]  -5.9119075531736731e-02
    x[2,8]    findWorstP[4,2]  -2.5216807625184590e-01
    x[3,1]    allocateEach[1]  1
    x[3,1]    findWorstP[1,3]  -1.1833477354750166e-01
    x[3,1]    findWorstP[2,3]  -2.1006408734868265e-01
    x[3,1]    findWorstP[3,1]  1.8869775342727949e-01
    x[3,1]    findWorstP[3,2]  1.8869775342727949e-01
    x[3,1]    findWorstP[3,4]  1.8869775342727949e-01
    x[3,1]    findWorstP[4,3]  -1.6171298160826955e-01
    x[3,2]    allocateEach[2]  1
    x[3,2]    findWorstP[1,3]  -8.2575102932953809e-02
    x[3,2]    findWorstP[2,3]  -1.8112767839803207e-01
    x[3,2]    findWorstP[3,1]  2.2317391200325384e-01
    x[3,2]    findWorstP[3,2]  2.2317391200325384e-01
    x[3,2]    findWorstP[3,4]  2.2317391200325384e-01
    x[3,2]    findWorstP[4,3]  -1.9763726674721438e-01
    x[3,3]    allocateEach[3]  1
    x[3,3]    findWorstP[1,3]  -2.2670665378945765e-01
    x[3,3]    findWorstP[2,3]  -7.4164382970459408e-02
    x[3,3]    findWorstP[3,1]  1.7393592841591504e-02
    x[3,3]    findWorstP[3,2]  1.7393592841591504e-02
    x[3,3]    findWorstP[3,4]  1.7393592841591504e-02
    x[3,3]    findWorstP[4,3]  -4.8785071821721038e-02
    x[3,4]    allocateEach[4]  1
    x[3,4]    findWorstP[1,3]  -1.8289025568037412e-01
    x[3,4]    findWorstP[2,3]  -9.4857907343072312e-02
    x[3,4]    findWorstP[3,1]  0.129339426274613
    x[3,4]    findWorstP[3,2]  0.129339426274613
    x[3,4]    findWorstP[3,4]  0.129339426274613
    x[3,4]    findWorstP[4,3]  -1.7452006980802793e-03
    x[3,5]    allocateEach[5]  1
    x[3,5]    findWorstP[1,3]  -2.2746912011386164e-02
    x[3,5]    findWorstP[2,3]  -5.2111429989426666e-02
    x[3,5]    findWorstP[3,1]  4.2945665956886862e-02
    x[3,5]    findWorstP[3,2]  4.2945665956886862e-02
    x[3,5]    findWorstP[3,4]  4.2945665956886862e-02
    x[3,5]    findWorstP[4,3]  -3.3722647335212776e-02
    x[3,6]    allocateEach[6]  1
    x[3,6]    findWorstP[1,3]  -3.5505515173079857e-02
    x[3,6]    findWorstP[2,3]  -5.4981334829424085e-02
    x[3,6]    findWorstP[3,1]  1.3398090772064983e-02
    x[3,6]    findWorstP[3,2]  1.3398090772064983e-02
    x[3,6]    findWorstP[3,4]  1.3398090772064983e-02
    x[3,6]    findWorstP[4,3]  -1.7658746140421533e-01
    x[3,7]    allocateEach[7]  1
    x[3,7]    findWorstP[1,3]  -1.7168200071163525e-01
    x[3,7]    findWorstP[2,3]  -9.8439893835099157e-02
    x[3,7]    findWorstP[3,1]  2.3023183482068094e-01
    x[3,7]    findWorstP[3,2]  2.3023183482068094e-01
    x[3,7]    findWorstP[3,4]  2.3023183482068094e-01
    x[3,7]    findWorstP[4,3]  -2.0244328097731239e-02
    x[3,8]    allocateEach[8]  1
    x[3,8]    findWorstP[1,3]  -5.7896609566410823e-02
    x[3,8]    findWorstP[2,3]  -1.4794035776708456e-01
    x[3,8]    findWorstP[3,1]  5.9119075531736731e-02
    x[3,8]    findWorstP[3,2]  5.9119075531736731e-02
    x[3,8]    findWorstP[3,4]  5.9119075531736731e-02
    x[3,8]    findWorstP[4,3]  -2.5216807625184590e-01
    x[4,1]    allocateEach[1]  1
    x[4,1]    findWorstP[1,4]  -1.1833477354750166e-01
    x[4,1]    findWorstP[2,4]  -2.1006408734868265e-01
    x[4,1]    findWorstP[3,4]  -1.8869775342727949e-01
    x[4,1]    findWorstP[4,1]  1.6171298160826955e-01
    x[4,1]    findWorstP[4,2]  1.6171298160826955e-01
    x[4,1]    findWorstP[4,3]  1.6171298160826955e-01
    x[4,2]    allocateEach[2]  1
    x[4,2]    findWorstP[1,4]  -8.2575102932953809e-02
    x[4,2]    findWorstP[2,4]  -1.8112767839803207e-01
    x[4,2]    findWorstP[3,4]  -2.2317391200325384e-01
    x[4,2]    findWorstP[4,1]  1.9763726674721438e-01
    x[4,2]    findWorstP[4,2]  1.9763726674721438e-01
    x[4,2]    findWorstP[4,3]  1.9763726674721438e-01
    x[4,3]    allocateEach[3]  1
    x[4,3]    findWorstP[1,4]  -2.2670665378945765e-01
    x[4,3]    findWorstP[2,4]  -7.4164382970459408e-02
    x[4,3]    findWorstP[3,4]  -1.7393592841591504e-02
    x[4,3]    findWorstP[4,1]  4.8785071821721038e-02
    x[4,3]    findWorstP[4,2]  4.8785071821721038e-02
    x[4,3]    findWorstP[4,3]  4.8785071821721038e-02
    x[4,4]    allocateEach[4]  1
    x[4,4]    findWorstP[1,4]  -1.8289025568037412e-01
    x[4,4]    findWorstP[2,4]  -9.4857907343072312e-02
    x[4,4]    findWorstP[3,4]  -0.129339426274613
    x[4,4]    findWorstP[4,1]  1.7452006980802793e-03
    x[4,4]    findWorstP[4,2]  1.7452006980802793e-03
    x[4,4]    findWorstP[4,3]  1.7452006980802793e-03
    x[4,5]    allocateEach[5]  1
    x[4,5]    findWorstP[1,4]  -2.2746912011386164e-02
    x[4,5]    findWorstP[2,4]  -5.2111429989426666e-02
    x[4,5]    findWorstP[3,4]  -4.2945665956886862e-02
    x[4,5]    findWorstP[4,1]  3.3722647335212776e-02
    x[4,5]    findWorstP[4,2]  3.3722647335212776e-02
    x[4,5]    findWorstP[4,3]  3.3722647335212776e-02
    x[4,6]    allocateEach[6]  1
    x[4,6]    findWorstP[1,4]  -3.5505515173079857e-02
    x[4,6]    findWorstP[2,4]  -5.4981334829424085e-02
    x[4,6]    findWorstP[3,4]  -1.3398090772064983e-02
    x[4,6]    findWorstP[4,1]  1.7658746140421533e-01
    x[4,6]    findWorstP[4,2]  1.7658746140421533e-01
    x[4,6]    findWorstP[4,3]  1.7658746140421533e-01
    x[4,7]    allocateEach[7]  1
    x[4,7]    findWorstP[1,4]  -1.7168200071163525e-01
    x[4,7]    findWorstP[2,4]  -9.8439893835099157e-02
    x[4,7]    findWorstP[3,4]  -2.3023183482068094e-01
    x[4,7]    findWorstP[4,1]  2.0244328097731239e-02
    x[4,7]    findWorstP[4,2]  2.0244328097731239e-02
    x[4,7]    findWorstP[4,3]  2.0244328097731239e-02
    x[4,8]    allocateEach[8]  1
    x[4,8]    findWorstP[1,4]  -5.7896609566410823e-02
    x[4,8]    findWorstP[2,4]  -1.4794035776708456e-01
    x[4,8]    findWorstP[3,4]  -5.9119075531736731e-02
    x[4,8]    findWorstP[4,1]  2.5216807625184590e-01
    x[4,8]    findWorstP[4,2]  2.5216807625184590e-01
    x[4,8]    findWorstP[4,3]  2.5216807625184590e-01
    MARKER    'MARKER'                 'INTEND'
RHS
    RHS1      allocateEach[1]  1
    RHS1      allocateEach[2]  1
    RHS1      allocateEach[3]  1
    RHS1      allocateEach[4]  1
    RHS1      allocateEach[5]  1
    RHS1      allocateEach[6]  1
    RHS1      allocateEach[7]  1
    RHS1      allocateEach[8]  1
    RHS1      allocateAllCash  1
BOUNDS
 UP BND1      z         1
 MI BND1      cashProportion[1]
 UP BND1      cashProportion[1]  1
 MI BND1      cashProportion[2]
 UP BND1      cashProportion[2]  1
 MI BND1      cashProportion[3]
 UP BND1      cashProportion[3]  1
 MI BND1      cashProportion[4]
 UP BND1      cashProportion[4]  1
 BV BND1      x[1,1]  
 BV BND1      x[1,2]  
 BV BND1      x[1,3]  
 BV BND1      x[1,4]  
 BV BND1      x[1,5]  
 BV BND1      x[1,6]  
 BV BND1      x[1,7]  
 BV BND1      x[1,8]  
 BV BND1      x[2,1]  
 BV BND1      x[2,2]  
 BV BND1      x[2,3]  
 BV BND1      x[2,4]  
 BV BND1      x[2,5]  
 BV BND1      x[2,6]  
 BV BND1      x[2,7]  
 BV BND1      x[2,8]  
 BV BND1      x[3,1]  
 BV BND1      x[3,2]  
 BV BND1      x[3,3]  
 BV BND1      x[3,4]  
 BV BND1      x[3,5]  
 BV BND1      x[3,6]  
 BV BND1      x[3,7]  
 BV BND1      x[3,8]  
 BV BND1      x[4,1]  
 BV BND1      x[4,2]  
 BV BND1      x[4,3]  
 BV BND1      x[4,4]  
 BV BND1      x[4,5]  
 BV BND1      x[4,6]  
 BV BND1      x[4,7]  
 BV BND1      x[4,8]  
ENDATA
